%%%mzn-stat: initTime=0.005039156
%%%mzn-stat: objective=356
%%%mzn-stat: nodes=660
%%%mzn-stat: restarts=0
%%%mzn-stat: peakDepth=100
%%%mzn-stat: solveTime=0.06888989
%%%mzn-stat: variables=496
%%%mzn-stat: propagators=348
%%%mzn-stat: failures=394
%%%mzn-stat: propagations=113138
%%%mzn-stat: nogoods=394
%%%mzn-stat: AverageConflictSize=13.51776649746193
%%%mzn-stat: NumUnitNogoodsLearned=355
%%%mzn-stat: AverageLearnedNogoodLength=3.314720812182741
%%%mzn-stat: AverageBacktrackAmount=0
%%%mzn-stat: AverageLbd=1.3197969543147208
%%%mzn-stat-end
maxleg = 356;
succ = array1d(1..20,[15, 20, 13, 12, 11, 5, 16, 9, 17, 4, 18, 3, 14, 7, 2, 1, 10, 8, 6, 19]);
% time elapsed: 1.50 s
----------
==========
% time elapsed: 1.50 s
%%%mzn-stat: initTime=0.005039156
%%%mzn-stat: objective=356
%%%mzn-stat: nodes=660
%%%mzn-stat: restarts=0
%%%mzn-stat: peakDepth=100
%%%mzn-stat: solveTime=0.068893902
%%%mzn-stat: variables=496
%%%mzn-stat: propagators=348
%%%mzn-stat: failures=394
%%%mzn-stat: propagations=113138
%%%mzn-stat: nogoods=394
%%%mzn-stat: AverageConflictSize=13.51776649746193
%%%mzn-stat: NumUnitNogoodsLearned=355
%%%mzn-stat: AverageLearnedNogoodLength=3.314720812182741
%%%mzn-stat: AverageBacktrackAmount=0
%%%mzn-stat: AverageLbd=1.3197969543147208
%%%mzn-stat-end
